(set-logic ALL)
(declare-fun seed0_T_1 () Bool)
(declare-fun seed0_T_2 () Bool)
(declare-fun seed0_T_3 () Bool)
(declare-fun seed0_T_4 () Bool)
(declare-fun seed0_var_0xINPUT_96030 () String)
(assert (and (or (= seed0_T_1 (= "-" seed0_var_0xINPUT_96030)) (not (str.contains (str.++ seed0_var_0xINPUT_96030 "Y") (str.++ seed0_var_0xINPUT_96030 "2rzg")))) (or (= seed0_T_2 (not seed0_T_1)) (xor (str.prefixof (str.++ seed0_var_0xINPUT_96030 "UAY") (str.++ seed0_var_0xINPUT_96030 "")) (str.<= (str.++ seed0_var_0xINPUT_96030 "RGb1p4SImh9WuaDTX6QN") (str.++ seed0_var_0xINPUT_96030 "I5hqC4xnUEOazPVJD")))) (or seed0_T_2 (xor (str.suffixof (str.++ seed0_var_0xINPUT_96030 "iMUncl8yxAQHZRfF") (str.++ seed0_var_0xINPUT_96030 "LjKEc2yXkRpgQnZS5Go")) (str.suffixof (str.++ seed0_var_0xINPUT_96030 "pdEZetfTsow4qgzGWu") (str.++ seed0_var_0xINPUT_96030 "FIXRp49ZdTrsx")))) (or (= seed0_T_3 (= "" seed0_var_0xINPUT_96030)) (str.<= (str.++ seed0_var_0xINPUT_96030 "1I") (str.++ seed0_var_0xINPUT_96030 ""))) (or (= seed0_T_4 (not seed0_T_3)) (str.suffixof (str.++ seed0_var_0xINPUT_96030 "VxXRHBUJFW5obk8") (str.++ seed0_var_0xINPUT_96030 "54Nc2HJT"))) (or seed0_T_4 (not (str.contains (str.++ seed0_var_0xINPUT_96030 "ZJbadg7FnzBr") (str.++ seed0_var_0xINPUT_96030 "7"))))))
(check-sat)
(exit)